NAME : amz1781.71716_71716.tour
COMMENT : Cost = 71716_71716
COMMENT : Found by LKH-AMZ [Keld Helsgaun] Sun May 11 15:00:23 2025
COMMENT : TW viol.: 0 #: 0
TYPE : TOUR
DIMENSION : 94
TOUR_SECTION
72
91
19
93
46
65
5
12
92
76
48
29
70
21
47
1
79
81
33
37
68
53
17
75
84
82
78
25
35
13
26
23
80
56
58
60
77
59
71
57
94
74
45
50
2
4
44
42
51
52
8
30
41
66
38
90
39
43
22
11
64
63
32
20
86
69
10
61
3
28
15
7
16
34
85
27
49
24
67
73
62
89
31
36
88
83
40
14
55
87
6
18
9
54
-1
EOF
